(set-logic QF_S)
(declare-fun var_0xINPUT_242713 () String)
(assert (and (= (len var_0xINPUT_242713) 0) (= (len var_0xINPUT_242713) 0) (not (= var_0xINPUT_242713 "Example:")) (not (= var_0xINPUT_242713 "YY8CBEMy6Q"))))
(check-sat var_0xINPUT_242713)